g3 0 1 0	# problem d4n12R3R7d005d1
 12 9 1 0 3	# vars, constraints, objectives, ranges, eqns
 4 1	# nonlinear constraints, objectives
 0 0	# network constraints: nonlinear, linear
 12 12 12	# nonlinear vars in constraints, objectives, both
 0 0 0 1	# linear network variables; functions; arith, flags
 0 0 0 0 0	# discrete variables: binary, integer, nonlinear (b,c,o)
 108 12	# nonzeros in Jacobian, gradients
 0 0	# max name lengths: constraints, variables
 0 0 0 0 0	# common exprs: b,c,o,c1,o1
b
0 0.64 2.31
0 0.32 2.84
0 0.26 2.47
0 0.94 2.28
0 0.29 2.73
0 0.97 2.96
0 0.16 2.6
0 0.11 2.75
0 0.98 2.29
0 0.59 2.7
0 0.74 2.7
0 0.5 2.78
r
2 119.791
2 403.675
2 2379.08
2 89.313
4 64.739
4 49.215
4 84.323
2 55.255
2 83.14
C0
o54
3
o2
o2
n6.91
v0
v6
o2
o2
n5.4
v1
v10
o2
o2
n4.94
v6
v9
C1
o54
20
o2
o2
n6.7
v0
v6
o2
o2
n9.21
v1
v10
o2
o2
n1.46
v6
v9
o2
o2
o2
n6.36
v0
v1
v7
o2
o2
o2
n2.53
v0
v1
v8
o2
o2
o2
n3.25
v0
v2
v3
o2
o2
o2
n9.81
v0
v2
v10
o2
o2
o2
n3.97
v0
v5
v11
o2
o2
o2
n4.46
v0
v9
v11
o2
o2
o2
n8.48
v1
v3
v6
o2
o2
o2
n1.36
v2
v2
v9
o2
o2
o2
n7.18
v2
v5
v6
o2
o2
o2
n2.34
v2
v7
v8
o2
o2
o2
n2.56
v2
v8
v9
o2
o2
o2
n4.31
v2
v10
v11
o2
o2
o2
n4.8
v3
v4
v5
o2
o2
o2
n1.27
v3
v7
v9
o2
o2
o2
n2.55
v5
v8
v8
o2
o2
o2
n4.36
v6
v7
v8
o2
o2
o2
n5.68
v6
v8
v10
C2
o54
90
o2
o2
n0.08
v0
v6
o2
o2
n9.87
v1
v10
o2
o2
n5.38
v6
v9
o2
o2
o2
n9.61
v0
v1
v7
o2
o2
o2
n9.84
v0
v1
v8
o2
o2
o2
n7.43
v0
v2
v3
o2
o2
o2
n9.42
v0
v2
v10
o2
o2
o2
n4.5
v0
v5
v11
o2
o2
o2
n1.62
v0
v9
v11
o2
o2
o2
n0.18
v1
v3
v6
o2
o2
o2
n8.19
v2
v2
v9
o2
o2
o2
n9.3
v2
v5
v6
o2
o2
o2
n3.73
v2
v7
v8
o2
o2
o2
n1.77
v2
v8
v9
o2
o2
o2
n4.1
v2
v10
v11
o2
o2
o2
n0.87
v3
v4
v5
o16
o2
o2
o2
n3.77
v3
v7
v9
o2
o2
o2
n1.89
v5
v8
v8
o2
o2
o2
n6.15
v6
v7
v8
o2
o2
o2
n7.68
v6
v8
v10
o2
o2
o2
o2
n6
v0
v0
v1
v4
o2
o2
o2
o2
n2.66
v0
v0
v4
v9
o2
o2
o2
o2
n7.89
v0
v0
v7
v9
o2
o2
o2
o2
n1.81
v0
v3
v5
v10
o2
o2
o2
o2
n9.95
v0
v3
v6
v10
o2
o2
o2
o2
n6.33
v0
v4
v6
v10
o2
o2
o2
o2
n6.72
v0
v5
v5
v9
o2
o2
o2
o2
n2.33
v0
v6
v6
v9
o2
o2
o2
o2
n0.37
v1
v1
v1
v6
o2
o2
o2
o2
n4.29
v1
v1
v6
v8
o2
o2
o2
o2
n4.34
v1
v2
v2
v2
o2
o2
o2
o2
n9.81
v1
v2
v3
v7
o2
o2
o2
o2
n8.28
v1
v2
v3
v10
o2
o2
o2
o2
n7.17
v1
v2
v10
v10
o2
o2
o2
o2
n8.59
v1
v2
v10
v11
o2
o2
o2
o2
n2.23
v1
v3
v3
v5
o2
o2
o2
o2
n3.42
v1
v3
v5
v6
o2
o2
o2
o2
n6.37
v1
v3
v7
v11
o16
o2
o2
o2
o2
n6.38
v1
v5
v5
v10
o2
o2
o2
o2
n1.93
v1
v5
v7
v8
o2
o2
o2
o2
n7.84
v1
v6
v6
v6
o2
o2
o2
o2
n6.7
v1
v6
v8
v10
o2
o2
o2
o2
n8
v2
v2
v3
v8
o16
o2
o2
o2
o2
n4.05
v2
v2
v9
v9
o2
o2
o2
o2
n0.79
v2
v2
v9
v11
o16
o2
o2
o2
o2
n0.34
v2
v3
v3
v9
o16
o2
o2
o2
o2
n2.59
v2
v3
v3
v10
o2
o2
o2
o2
n6.01
v2
v3
v5
v11
o2
o2
o2
o2
n4.89
v2
v3
v7
v10
o2
o2
o2
o2
n2.06
v2
v4
v5
v8
o2
o2
o2
o2
n4.94
v2
v4
v6
v10
o2
o2
o2
o2
n8.39
v2
v4
v10
v10
o16
o2
o2
o2
o2
n3.46
v2
v4
v10
v11
o2
o2
o2
o2
n5.63
v2
v5
v8
v9
o2
o2
o2
o2
n3.45
v2
v6
v7
v11
o2
o2
o2
o2
n6.96
v2
v7
v7
v8
o2
o2
o2
o2
n9.18
v2
v7
v8
v11
o2
o2
o2
o2
n1.53
v2
v8
v8
v11
o2
o2
o2
o2
n9.42
v2
v9
v11
v11
o2
o2
o2
o2
n6.02
v3
v3
v4
v9
o2
o2
o2
o2
n3.98
v3
v3
v5
v8
o2
o2
o2
o2
n5.91
v3
v3
v5
v10
o2
o2
o2
o2
n7.57
v3
v4
v5
v5
o2
o2
o2
o2
n2.98
v3
v4
v7
v9
o2
o2
o2
o2
n0.15
v3
v4
v9
v9
o2
o2
o2
o2
n0.74
v3
v5
v9
v9
o2
o2
o2
o2
n7.74
v3
v6
v8
v10
o2
o2
o2
o2
n4.14
v3
v8
v10
v10
o2
o2
o2
o2
n2.75
v3
v9
v9
v10
o2
o2
o2
o2
n5.32
v3
v9
v9
v11
o16
o2
o2
o2
o2
n7.97
v4
v4
v7
v8
o2
o2
o2
o2
n1.82
v4
v5
v10
v10
o2
o2
o2
o2
n3.21
v4
v7
v7
v8
o2
o2
o2
o2
n8.92
v4
v7
v8
v9
o2
o2
o2
o2
n8.7
v5
v5
v6
v7
o2
o2
o2
o2
n2.62
v5
v5
v6
v10
o2
o2
o2
o2
n4.25
v5
v5
v9
v11
o2
o2
o2
o2
n4.76
v6
v6
v9
v11
o2
o2
o2
o2
n8.31
v6
v7
v7
v11
o2
o2
o2
o2
n7.03
v7
v7
v7
v11
o2
o2
o2
o2
n5.97
v7
v7
v10
v10
o2
o2
o2
o2
n5.19
v7
v7
v11
v11
o2
o2
o2
o2
n9.87
v7
v8
v8
v11
o16
o2
o2
o2
o2
n0.25
v7
v8
v9
v11
o2
o2
o2
o2
n3.27
v7
v8
v10
v11
o2
o2
o2
o2
n8.12
v7
v11
v11
v11
o2
o2
o2
o2
n9.15
v8
v9
v9
v9
o2
o2
o2
o2
n4.23
v9
v9
v9
v9
o2
o2
o2
o2
n4.48
v9
v9
v10
v10
o2
o2
o2
o2
n4.76
v9
v10
v10
v11
C3
o54
3
o16
o2
o2
n5.12
v0
v6
o2
o2
n0.7
v1
v10
o2
o2
n2.43
v6
v9
C4
n0
C5
n0
C6
n0
C7
n0
C8
n0
O0 0
o54
90
o16
o2
o2
n9.82
v0
v6
o2
o2
n6.17
v1
v10
o2
o2
n5.51
v6
v9
o2
o2
o2
n4.63
v0
v1
v7
o2
o2
o2
n6.48
v0
v1
v8
o16
o2
o2
o2
n5.97
v0
v2
v3
o2
o2
o2
n6.33
v0
v2
v10
o2
o2
o2
n0.85
v0
v5
v11
o2
o2
o2
n8.25
v0
v9
v11
o2
o2
o2
n1.94
v1
v3
v6
o2
o2
o2
n9.64
v2
v2
v9
o2
o2
o2
n7.06
v2
v5
v6
o2
o2
o2
n3.38
v2
v7
v8
o2
o2
o2
n3.79
v2
v8
v9
o2
o2
o2
n1.35
v2
v10
v11
o2
o2
o2
n3.12
v3
v4
v5
o2
o2
o2
n0.29
v3
v7
v9
o16
o2
o2
o2
n5.19
v5
v8
v8
o2
o2
o2
n5.52
v6
v7
v8
o2
o2
o2
n4.73
v6
v8
v10
o2
o2
o2
o2
n2.61
v0
v0
v1
v4
o2
o2
o2
o2
n9.13
v0
v0
v4
v9
o2
o2
o2
o2
n2.53
v0
v0
v7
v9
o2
o2
o2
o2
n6.93
v0
v3
v5
v10
o2
o2
o2
o2
n0.45
v0
v3
v6
v10
o2
o2
o2
o2
n9.51
v0
v4
v6
v10
o2
o2
o2
o2
n3.5
v0
v5
v5
v9
o2
o2
o2
o2
n3.82
v0
v6
v6
v9
o2
o2
o2
o2
n7.94
v1
v1
v1
v6
o2
o2
o2
o2
n8.99
v1
v1
v6
v8
o2
o2
o2
o2
n0.91
v1
v2
v2
v2
o2
o2
o2
o2
n4.53
v1
v2
v3
v7
o2
o2
o2
o2
n7.06
v1
v2
v3
v10
o2
o2
o2
o2
n3.1
v1
v2
v10
v10
o2
o2
o2
o2
n5.57
v1
v2
v10
v11
o2
o2
o2
o2
n5.46
v1
v3
v3
v5
o2
o2
o2
o2
n7.61
v1
v3
v5
v6
o2
o2
o2
o2
n0.6
v1
v3
v7
v11
o2
o2
o2
o2
n9.76
v1
v5
v5
v10
o2
o2
o2
o2
n8.73
v1
v5
v7
v8
o2
o2
o2
o2
n3.56
v1
v6
v6
v6
o2
o2
o2
o2
n0.05
v1
v6
v8
v10
o2
o2
o2
o2
n6.64
v2
v2
v3
v8
o16
o2
o2
o2
o2
n6.96
v2
v2
v9
v9
o2
o2
o2
o2
n5.57
v2
v2
v9
v11
o16
o2
o2
o2
o2
n2.71
v2
v3
v3
v9
o2
o2
o2
o2
n5.92
v2
v3
v3
v10
o2
o2
o2
o2
n4.17
v2
v3
v5
v11
o2
o2
o2
o2
n9.75
v2
v3
v7
v10
o2
o2
o2
o2
n1.58
v2
v4
v5
v8
o2
o2
o2
o2
n5.78
v2
v4
v6
v10
o2
o2
o2
o2
n3.07
v2
v4
v10
v10
o2
o2
o2
o2
n2.75
v2
v4
v10
v11
o2
o2
o2
o2
n6.81
v2
v5
v8
v9
o16
o2
o2
o2
o2
n1.02
v2
v6
v7
v11
o2
o2
o2
o2
n8.53
v2
v7
v7
v8
o2
o2
o2
o2
n3.01
v2
v7
v8
v11
o2
o2
o2
o2
n7.28
v2
v8
v8
v11
o2
o2
o2
o2
n7.48
v2
v9
v11
v11
o2
o2
o2
o2
n7.26
v3
v3
v4
v9
o16
o2
o2
o2
o2
n8.31
v3
v3
v5
v8
o2
o2
o2
o2
n8.42
v3
v3
v5
v10
o2
o2
o2
o2
n2.71
v3
v4
v5
v5
o2
o2
o2
o2
n3.83
v3
v4
v7
v9
o2
o2
o2
o2
n9.56
v3
v4
v9
v9
o2
o2
o2
o2
n6.38
v3
v5
v9
v9
o2
o2
o2
o2
n2.87
v3
v6
v8
v10
o2
o2
o2
o2
n2.89
v3
v8
v10
v10
o2
o2
o2
o2
n0.86
v3
v9
v9
v10
o2
o2
o2
o2
n8.29
v3
v9
v9
v11
o2
o2
o2
o2
n5.92
v4
v4
v7
v8
o16
o2
o2
o2
o2
n7.65
v4
v5
v10
v10
o2
o2
o2
o2
n5.75
v4
v7
v7
v8
o2
o2
o2
o2
n8.97
v4
v7
v8
v9
o2
o2
o2
o2
n1.01
v5
v5
v6
v7
o2
o2
o2
o2
n4.56
v5
v5
v6
v10
o2
o2
o2
o2
n9.77
v5
v5
v9
v11
o2
o2
o2
o2
n3.68
v6
v6
v9
v11
o16
o2
o2
o2
o2
n4.14
v6
v7
v7
v11
o2
o2
o2
o2
n4.37
v7
v7
v7
v11
o16
o2
o2
o2
o2
n9.25
v7
v7
v10
v10
o2
o2
o2
o2
n7.29
v7
v7
v11
v11
o2
o2
o2
o2
n0.1
v7
v8
v8
v11
o2
o2
o2
o2
n9.29
v7
v8
v9
v11
o2
o2
o2
o2
n6.35
v7
v8
v10
v11
o2
o2
o2
o2
n9.6
v7
v11
v11
v11
o16
o2
o2
o2
o2
n0.61
v8
v9
v9
v9
o2
o2
o2
o2
n6.47
v9
v9
v9
v9
o2
o2
o2
o2
n0.34
v9
v9
v10
v10
o2
o2
o2
o2
n6.96
v9
v10
v10
v11
k11
9
18
27
36
45
54
63
72
81
90
99
J0 12
0 3.57
1 5.25
2 9.76
3 1.26
4 5.74
5 4.6
6 1.49
7 0.91
8 1.19
9 9.68
10 5.98
11 1.04
J1 12
0 5.26
1 9.23
2 3.09
3 0.6
4 -4.36
5 1.48
6 9.83
7 9.03
8 6.17
9 -2.98
10 8.88
11 4.71
J2 12
0 8.92
1 1.44
2 2.7
3 0.71
4 4.21
5 5.77
6 5.32
7 6.23
8 7.18
9 4.65
10 3.46
11 8.5
J3 12
0 6.48
1 4.73
2 2.85
3 2.73
4 3.21
5 1.2
6 9.83
7 6.55
8 4.8
9 5.75
10 3.36
11 8.4
J4 12
0 0.36
1 7.91
2 5.77
3 8.2
4 9.66
5 3.69
6 5.17
7 4.09
8 -7.14
9 5.15
10 4.89
11 -5.73
J5 12
0 3.98
1 7.97
2 1.33
3 3.44
4 1.38
5 2.49
6 5.4
7 0.51
8 -3.05
9 6.99
10 -8.53
11 10
J6 12
0 4.45
1 9.75
2 5.9
3 9.92
4 7.8
5 3.63
6 -4.47
7 2.43
8 -3.99
9 7.66
10 6.31
11 3.16
J7 12
0 0.07
1 9.83
2 -7.05
3 4.12
4 0.29
5 9.57
6 9.14
7 -4.28
8 0.56
9 -5.17
10 7.52
11 7.03
J8 12
0 3.85
1 1.01
2 1.22
3 8.51
4 4.17
5 7.31
6 9.53
7 5.21
8 4.5
9 0.3
10 2.3
11 4.53
G0 12
0 9.52
1 8.72
2 4.66
3 7.28
4 3.12
5 -7.68
6 3.2
7 4.96
8 1.38
9 -7.69
10 7.5
11 7.19
